(set-logic QF_S)
(declare-fun var0 () String)
(declare-fun var1 () String)
(declare-fun var2 () String)
(declare-fun var3 () String)
(declare-fun var4 () String)
(declare-fun var5 () String)
(declare-fun var6 () String)
(declare-fun var7 () String)
(declare-fun var8 () String)
(declare-fun var9 () String)
(declare-fun var10 () String)
(declare-fun var11 () String)
(declare-fun var12 () String)
(declare-fun var13 () String)
(declare-fun var14 () String)
(declare-fun var15 () String)
(declare-fun var16 () String)
(declare-fun var17 () String)
(declare-fun var18 () String)
(declare-fun var19 () String)
(declare-fun var20 () String)
(declare-fun var21 () String)
(declare-fun var22 () String)
(declare-fun var23 () String)
(declare-fun var24 () String)
(declare-fun var25 () String)
(declare-fun var26 () String)
(declare-fun var27 () String)
(declare-fun var28 () String)
(declare-fun var29 () String)
(declare-fun var30 () String)
(declare-fun var31 () String)
(declare-fun var32 () String)
(declare-fun var33 () String)
(declare-fun var34 () String)
(declare-fun var35 () String)
(declare-fun var36 () String)
(declare-fun var37 () String)
(declare-fun var38 () String)
(declare-fun var39 () String)
(declare-fun var40 () String)
(declare-fun var41 () String)
(declare-fun var42 () String)
(declare-fun var43 () String)
(declare-fun var44 () String)
(declare-fun var45 () String)
(declare-fun var46 () String)
(declare-fun var47 () String)
(declare-fun var48 () String)
(declare-fun var49 () String)
(declare-fun var50 () String)
(declare-fun var51 () String)
(declare-fun var52 () String)
(declare-fun var53 () String)
(declare-fun var54 () String)
(declare-fun var55 () String)
(declare-fun var56 () String)
(declare-fun var57 () String)
(declare-fun var58 () String)
(declare-fun var59 () String)
(declare-fun var60 () String)
(assert (= var0 (str.++ var1 var2)))
(assert (= var2 (str.++ var3 var4)))
(assert (= var4 (str.++ var5 var6)))
(assert (= var6 (str.++ var7 var8)))
(assert (= var8 (str.++ var9 var10)))
(assert (= var10 (str.++ var11 var12)))
(assert (= var12 (str.++ var13 var14)))
(assert (= var14 (str.++ var15 var16)))
(assert (= var16 (str.++ var17 var18)))
(assert (= var18 (str.++ var19 var20)))
(assert (= var20 (str.++ var21 var22)))
(assert (= var22 (str.++ var23 var24)))
(assert (= var24 (str.++ var25 var26)))
(assert (= var26 (str.++ var27 var28)))
(assert (= var28 (str.++ var29 var30)))
(assert (= var30 (str.++ var31 var32)))
(assert (= var32 (str.++ var33 var34)))
(assert (= var34 (str.++ var35 var36)))
(assert (= var36 (str.++ var37 var38)))
(assert (= var38 (str.++ var39 var40)))
(assert (= var40 (str.++ var41 var42)))
(assert (= var42 (str.++ var43 var44)))
(assert (= var44 (str.++ var45 var46)))
(assert (= var46 (str.++ var47 var48)))
(assert (= var48 (str.++ var49 var50)))
(assert (= var50 (str.++ var51 var52)))
(assert (= var52 (str.++ var53 var54)))
(assert (= var54 (str.++ var55 var56)))
(assert (= var56 (str.++ var57 var58)))
(assert (= var58 (str.++ var59 var60)))
(assert (= var0 "solution"))
(assert (= "<" (str.at var26 736)))
(assert (= "5" (str.at var19 153)))
(assert (= "L" (str.at var16 417)))
(assert (= "`" (str.at var29 697)))
(assert (= "g" (str.at var26 822)))
(assert (= "L" (str.at var4 205)))
(assert (= "8" (str.at var21 263)))
(assert (= "C" (str.at var53 944)))
(assert (= "M" (str.at var12 55)))
(assert (= "t" (str.at var31 503)))
(assert (= "X" (str.at var33 932)))
(assert (= "a" (str.at var34 785)))
(assert (= "G" (str.at var41 314)))
(assert (= "," (str.at var20 206)))
(assert (= "O" (str.at var17 277)))
(assert (= "G" (str.at var11 735)))
(assert (= "6" (str.at var38 301)))
(assert (= "L" (str.at var10 157)))
(assert (= "1" (str.at var2 67)))
(assert (= "4" (str.at var3 20)))
(assert (= "|" (str.at var49 154)))
(assert (= "@" (str.at var25 119)))
(assert (= "n" (str.at var16 395)))
(assert (= "e" (str.at var8 440)))
(assert (= "u" (str.at var7 220)))
(assert (= "c" (str.at var27 418)))
(assert (= "(" (str.at var45 636)))
(assert (= "." (str.at var55 569)))
(assert (= "?" (str.at var25 301)))
(assert (= "^" (str.at var58 935)))
(assert (= "}" (str.at var14 717)))
(assert (= "f" (str.at var29 246)))
(assert (= "H" (str.at var12 73)))
(assert (= "}" (str.at var17 534)))
(assert (= "Y" (str.at var19 255)))
(assert (= "-" (str.at var31 661)))
(assert (= "C" (str.at var28 852)))
(assert (= "F" (str.at var28 633)))
(assert (= "8" (str.at var2 108)))
(assert (= "e" (str.at var21 102)))
(assert (= "+" (str.at var51 957)))
(assert (= "-" (str.at var38 47)))
(assert (= "m" (str.at var19 648)))
(assert (= "j" (str.at var46 829)))
(assert (= "8" (str.at var3 266)))
(assert (= "2" (str.at var19 754)))
(assert (= "4" (str.at var11 814)))
(assert (= "}" (str.at var17 179)))
(assert (= "[" (str.at var4 333)))
(assert (= "9" (str.at var19 163)))
(assert (= "K" (str.at var14 880)))
(assert (= "&" (str.at var22 622)))
(assert (= "{" (str.at var26 819)))
(assert (= "y" (str.at var18 612)))
(assert (= "7" (str.at var54 362)))
(assert (= "d" (str.at var47 876)))
(assert (= "I" (str.at var51 944)))
(assert (= "C" (str.at var60 442)))
(assert (= "e" (str.at var25 805)))
(assert (= "1" (str.at var43 592)))
(assert (= "," (str.at var53 122)))
(assert (= "3" (str.at var53 680)))
(assert (= "K" (str.at var54 993)))
(assert (= "y" (str.at var59 149)))
(assert (= "4" (str.at var47 918)))
(assert (= "a" (str.at var36 10)))
(assert (= "'" (str.at var21 7)))
(assert (= "/" (str.at var35 338)))
(assert (= "2" (str.at var54 719)))
(assert (= "." (str.at var25 336)))
(assert (= "s" (str.at var30 446)))
(assert (= "_" (str.at var1 957)))
(assert (= "a" (str.at var55 843)))
(assert (= "J" (str.at var14 735)))
(assert (= "z" (str.at var28 59)))
(assert (= "[" (str.at var38 473)))
(assert (= "[" (str.at var25 558)))
(assert (= "a" (str.at var47 783)))
(assert (= "Y" (str.at var16 779)))
(assert (= "u" (str.at var53 574)))
(assert (= "(" (str.at var40 747)))
(assert (= "]" (str.at var37 363)))
(assert (= "M" (str.at var37 598)))
(assert (= "t" (str.at var17 356)))
(assert (= "_" (str.at var27 278)))
(assert (= "9" (str.at var35 619)))
(assert (= "X" (str.at var5 924)))
(assert (= "`" (str.at var11 564)))
(assert (= "Q" (str.at var7 509)))
(assert (= "Z" (str.at var37 982)))
(assert (= "x" (str.at var17 506)))
(assert (= "E" (str.at var32 59)))
(assert (= "a" (str.at var16 228)))
(assert (= "T" (str.at var40 158)))
(assert (= "v" (str.at var33 40)))
(assert (= "%" (str.at var45 902)))
(assert (= "e" (str.at var14 365)))
(assert (= "l" (str.at var2 20)))
(assert (= "[" (str.at var40 248)))
(assert (= "p" (str.at var51 377)))
(assert (= "H" (str.at var55 297)))
(assert (= "." (str.at var60 812)))
(assert (= "g" (str.at var38 476)))
(assert (= "X" (str.at var26 645)))
(assert (= "@" (str.at var28 487)))
(assert (= "#" (str.at var13 22)))
(assert (= "@" (str.at var38 268)))
(assert (= "<" (str.at var38 379)))
(assert (= "(" (str.at var48 263)))
(assert (= "+" (str.at var43 109)))
(assert (= "H" (str.at var48 752)))
(assert (= "W" (str.at var55 143)))
(assert (= "!" (str.at var7 951)))
(assert (= "I" (str.at var33 531)))
(assert (= "u" (str.at var19 882)))
(assert (= "Z" (str.at var30 638)))
(assert (= "q" (str.at var60 416)))
(assert (= "t" (str.at var55 80)))
(assert (= "A" (str.at var31 316)))
(assert (= "c" (str.at var7 974)))
(assert (= "^" (str.at var44 722)))
(assert (= "l" (str.at var9 440)))
(assert (= "`" (str.at var8 797)))
(assert (= "o" (str.at var42 132)))
(assert (= "d" (str.at var48 257)))
(assert (= "u" (str.at var41 362)))
(assert (= "o" (str.at var31 879)))
(assert (= "k" (str.at var46 383)))
(assert (= "B" (str.at var10 231)))
(assert (= ":" (str.at var3 180)))
(assert (= ":" (str.at var38 819)))
(assert (= "u" (str.at var2 567)))
(assert (= "h" (str.at var35 445)))
(assert (= "~" (str.at var36 86)))
(assert (= "5" (str.at var9 442)))
(assert (= "5" (str.at var51 117)))
(assert (= "7" (str.at var8 1000)))
(assert (= "}" (str.at var43 350)))
(assert (= "o" (str.at var35 389)))
(assert (= "`" (str.at var25 436)))
(assert (= "|" (str.at var57 712)))
(assert (= "Q" (str.at var38 99)))
(assert (= "?" (str.at var14 325)))
(assert (= "l" (str.at var3 224)))
(assert (= "4" (str.at var28 552)))
(assert (= "m" (str.at var5 787)))
(assert (= "c" (str.at var44 59)))
(assert (= "k" (str.at var23 60)))
(assert (= "x" (str.at var16 511)))
(assert (= "5" (str.at var47 332)))
(assert (= "U" (str.at var44 745)))
(assert (= "v" (str.at var49 711)))
(assert (= "W" (str.at var28 933)))
(assert (= "R" (str.at var11 414)))
(assert (= "*" (str.at var28 92)))
(assert (= "F" (str.at var6 383)))
(assert (= "C" (str.at var49 300)))
(assert (= "," (str.at var56 465)))
(assert (= "@" (str.at var25 946)))
(assert (= "[" (str.at var36 561)))
(assert (= "C" (str.at var2 83)))
(assert (= "\\" (str.at var55 366)))
(assert (= "?" (str.at var60 569)))
(assert (= "x" (str.at var57 515)))
(assert (= "V" (str.at var45 97)))
(assert (= ":" (str.at var57 981)))
(assert (= "a" (str.at var8 755)))
(assert (= "c" (str.at var9 493)))
(assert (= "M" (str.at var29 136)))
(assert (= "F" (str.at var36 196)))
(assert (= ">" (str.at var45 218)))
(assert (= "b" (str.at var48 976)))
(assert (= "p" (str.at var22 859)))
(assert (= "j" (str.at var2 217)))
(assert (= "k" (str.at var39 759)))
(assert (= "V" (str.at var2 758)))
(assert (= "0" (str.at var39 820)))
(assert (= ")" (str.at var17 393)))
(assert (= "3" (str.at var56 332)))
(assert (= "K" (str.at var25 179)))
(assert (= "y" (str.at var36 790)))
(assert (= "2" (str.at var26 289)))
(assert (= "a" (str.at var21 98)))
(assert (= "q" (str.at var34 488)))
(assert (= "E" (str.at var51 335)))
(assert (= "a" (str.at var55 189)))
(assert (= "X" (str.at var16 52)))
(assert (= "K" (str.at var1 411)))
(assert (= "9" (str.at var36 99)))
(assert (= ">" (str.at var21 129)))
(assert (= "{" (str.at var6 412)))
(assert (= "f" (str.at var25 602)))
(assert (= "*" (str.at var28 348)))
(assert (= "Z" (str.at var55 248)))
(assert (= "K" (str.at var4 258)))
(assert (= "F" (str.at var49 457)))
(assert (= "s" (str.at var15 49)))
(assert (= "w" (str.at var11 403)))
(assert (= "j" (str.at var30 334)))
(assert (= "S" (str.at var31 186)))
(assert (= "1" (str.at var13 98)))
(assert (= "5" (str.at var31 137)))
(assert (= "I" (str.at var36 924)))
(assert (= "`" (str.at var45 25)))
(assert (= "i" (str.at var5 993)))
(assert (= "=" (str.at var50 639)))
(assert (= "M" (str.at var23 840)))
(assert (= "J" (str.at var9 542)))
(assert (= "|" (str.at var46 436)))
(assert (= "}" (str.at var14 859)))
(assert (= "d" (str.at var54 554)))
(assert (= "L" (str.at var58 322)))
(assert (= "~" (str.at var20 95)))
(assert (= "m" (str.at var14 159)))
(assert (= "I" (str.at var14 64)))
(assert (= "T" (str.at var54 449)))
(assert (= "D" (str.at var27 537)))
(assert (= "q" (str.at var34 1000)))
(assert (= "p" (str.at var7 250)))
(assert (= "A" (str.at var41 485)))
(assert (= "[" (str.at var19 20)))
(assert (= "4" (str.at var29 102)))
(assert (= "$" (str.at var0 56)))
(assert (= "9" (str.at var31 311)))
(assert (= "z" (str.at var23 61)))
(assert (= "U" (str.at var23 343)))
(assert (= ":" (str.at var53 918)))
(assert (= "X" (str.at var45 968)))
(assert (= "2" (str.at var6 729)))
(assert (= "D" (str.at var50 198)))
(assert (= """" (str.at var57 282)))
(assert (= "W" (str.at var38 878)))
(assert (= "6" (str.at var59 707)))
(assert (= "0" (str.at var10 838)))
(assert (= "p" (str.at var59 481)))
(assert (= ">" (str.at var59 462)))
(assert (= "q" (str.at var31 47)))
(assert (= "$" (str.at var47 788)))
(assert (= "Z" (str.at var3 290)))
(assert (= "@" (str.at var40 120)))
(assert (= "3" (str.at var16 753)))
(assert (= "|" (str.at var59 760)))
(assert (= "I" (str.at var15 772)))
(assert (= "r" (str.at var16 508)))
(assert (= "_" (str.at var54 534)))
(assert (= ")" (str.at var38 424)))
(assert (= "^" (str.at var3 64)))
(assert (= "u" (str.at var21 322)))
(assert (= "A" (str.at var45 158)))
(assert (= "C" (str.at var18 280)))
(assert (= "." (str.at var60 641)))
(assert (= "`" (str.at var8 954)))
(assert (= "K" (str.at var18 74)))
(assert (= "E" (str.at var3 383)))
(assert (= "5" (str.at var21 551)))
(assert (= "o" (str.at var18 239)))
(assert (= "\\" (str.at var55 239)))
(assert (= "+" (str.at var53 746)))
(assert (= "S" (str.at var2 327)))
(assert (= "0" (str.at var55 834)))
(assert (= "E" (str.at var45 656)))
(assert (= "7" (str.at var34 221)))
(assert (= "#" (str.at var51 205)))
(assert (= "Q" (str.at var2 852)))
(assert (= "e" (str.at var28 465)))
(assert (= ">" (str.at var9 763)))
(assert (= "y" (str.at var35 920)))
(assert (= "\\" (str.at var59 697)))
(assert (= "u" (str.at var56 125)))
(assert (= "7" (str.at var53 940)))
(assert (= "&" (str.at var8 800)))
(assert (= "`" (str.at var40 432)))
(assert (= "^" (str.at var16 611)))
(assert (= "3" (str.at var57 694)))
(assert (= ";" (str.at var44 172)))
(assert (= "J" (str.at var53 784)))
(assert (= "0" (str.at var40 617)))
(assert (= "/" (str.at var35 26)))
(assert (= "<" (str.at var32 164)))
(assert (= "5" (str.at var45 253)))
(assert (= "$" (str.at var34 457)))
(assert (= "C" (str.at var57 384)))
(assert (= "e" (str.at var40 801)))
(assert (= "2" (str.at var9 31)))
(assert (= "3" (str.at var4 778)))
(assert (= "N" (str.at var28 27)))
(assert (= "c" (str.at var46 837)))
(assert (= "J" (str.at var4 620)))
(assert (= "b" (str.at var27 400)))
(assert (= "!" (str.at var36 437)))
(assert (= "#" (str.at var11 114)))
(assert (= "e" (str.at var58 213)))
(assert (= ";" (str.at var6 64)))
(assert (= "P" (str.at var3 313)))
(assert (= "p" (str.at var15 897)))
(assert (= "_" (str.at var21 650)))
(assert (= ":" (str.at var53 468)))
(assert (= "9" (str.at var47 609)))
(assert (= "9" (str.at var13 924)))
(assert (= "c" (str.at var57 558)))
(assert (= "C" (str.at var42 624)))
(assert (= "d" (str.at var15 960)))
(assert (= "L" (str.at var53 98)))
(assert (= "1" (str.at var35 237)))
(assert (= ")" (str.at var59 506)))
(assert (= "E" (str.at var9 97)))
(assert (= "H" (str.at var32 965)))
(assert (= "I" (str.at var20 79)))
(assert (= "|" (str.at var32 876)))
(assert (= "D" (str.at var25 293)))
(assert (= "0" (str.at var34 738)))
(assert (= "I" (str.at var12 161)))
(assert (= "~" (str.at var14 879)))
(assert (= "U" (str.at var14 890)))
(assert (= "z" (str.at var11 689)))
(assert (= ":" (str.at var48 306)))
(assert (= "Z" (str.at var40 442)))
(assert (= "Z" (str.at var9 506)))
(assert (= "6" (str.at var35 155)))
(assert (= "=" (str.at var15 739)))
(assert (= "f" (str.at var44 859)))
(assert (= "t" (str.at var24 713)))
(assert (= "h" (str.at var16 703)))
(assert (= "r" (str.at var50 568)))
(assert (= "^" (str.at var29 243)))
(assert (= "$" (str.at var27 925)))
(assert (= "*" (str.at var14 343)))
(assert (= "]" (str.at var14 406)))
(assert (= "7" (str.at var53 485)))
(assert (= "N" (str.at var42 742)))
(assert (= "|" (str.at var39 349)))
(assert (= "'" (str.at var15 95)))
(assert (= ";" (str.at var0 907)))
(assert (= "q" (str.at var58 502)))
(assert (= "R" (str.at var44 385)))
(assert (= "7" (str.at var50 992)))
(assert (= "\\" (str.at var2 487)))
(assert (= "4" (str.at var18 562)))
(assert (= "!" (str.at var41 965)))
(assert (= "r" (str.at var14 457)))
(assert (= "C" (str.at var10 306)))
(assert (= "j" (str.at var28 467)))
(assert (= "v" (str.at var3 427)))
(assert (= "l" (str.at var21 458)))
(assert (= ";" (str.at var27 586)))
(assert (= "=" (str.at var56 1)))
(assert (= "(" (str.at var4 31)))
(assert (= "T" (str.at var0 825)))
(assert (= "{" (str.at var14 27)))
(assert (= "x" (str.at var11 80)))
(assert (= "+" (str.at var17 532)))
(assert (= "~" (str.at var43 335)))
(assert (= "b" (str.at var37 710)))
(assert (= "x" (str.at var18 807)))
(assert (= "i" (str.at var15 53)))
(assert (= "v" (str.at var44 730)))
(assert (= ":" (str.at var52 904)))
(assert (= "&" (str.at var38 444)))
(assert (= "3" (str.at var31 652)))
(assert (= "'" (str.at var6 634)))
(assert (= "7" (str.at var11 283)))
(assert (= "5" (str.at var38 807)))
(assert (= "7" (str.at var52 119)))
(assert (= "q" (str.at var6 824)))
(assert (= "y" (str.at var43 1000)))
(assert (= ":" (str.at var19 890)))
(assert (= "P" (str.at var59 521)))
(assert (= "#" (str.at var48 784)))
(assert (= "7" (str.at var28 676)))
(assert (= "=" (str.at var28 202)))
(assert (= "4" (str.at var42 835)))
(assert (= "W" (str.at var43 333)))
(assert (= "n" (str.at var22 829)))
(assert (= "_" (str.at var46 584)))
(assert (= "u" (str.at var28 854)))
(assert (= "S" (str.at var54 97)))
(assert (= "d" (str.at var30 509)))
(assert (= "h" (str.at var27 649)))
(assert (= "O" (str.at var28 82)))
(assert (= ")" (str.at var20 451)))
(assert (= "%" (str.at var59 305)))
(assert (= "u" (str.at var26 293)))
(assert (= "W" (str.at var47 252)))
(assert (= "x" (str.at var16 109)))
(assert (= "*" (str.at var27 150)))
(assert (= "^" (str.at var23 686)))
(assert (= "n" (str.at var20 808)))
(assert (= "8" (str.at var5 328)))
(assert (= "E" (str.at var53 138)))
(assert (= "." (str.at var32 24)))
(assert (= ":" (str.at var22 473)))
(assert (= "c" (str.at var37 894)))
(assert (= "R" (str.at var25 656)))
(assert (= "R" (str.at var7 340)))
(assert (= "l" (str.at var53 116)))
(assert (= "!" (str.at var4 47)))
(assert (= "3" (str.at var43 646)))
(assert (= "$" (str.at var6 788)))
(assert (= "{" (str.at var50 603)))
(assert (= "&" (str.at var18 527)))
(assert (= "k" (str.at var1 750)))
(assert (= "/" (str.at var51 452)))
(assert (= "o" (str.at var27 819)))
(assert (= "B" (str.at var39 525)))
(assert (= "v" (str.at var57 702)))
(assert (= "3" (str.at var35 841)))
(assert (= "g" (str.at var58 776)))
(assert (= "~" (str.at var22 51)))
(assert (= "l" (str.at var21 638)))
(assert (= "7" (str.at var35 267)))
(assert (= "`" (str.at var20 277)))
(assert (= "m" (str.at var14 503)))
(assert (= "j" (str.at var20 653)))
(assert (= "K" (str.at var17 280)))
(assert (= "3" (str.at var57 165)))
(assert (= "\\" (str.at var50 598)))
(assert (= "i" (str.at var21 88)))
(assert (= "%" (str.at var35 239)))
(assert (= "$" (str.at var32 227)))
(assert (= "V" (str.at var25 517)))
(assert (= "o" (str.at var32 682)))
(assert (= "A" (str.at var12 992)))
(assert (= "O" (str.at var3 630)))
(assert (= "4" (str.at var37 514)))
(assert (= "9" (str.at var1 515)))
(assert (= "(" (str.at var9 896)))
(assert (= "<" (str.at var59 837)))
(assert (= "-" (str.at var39 730)))
(assert (= "0" (str.at var13 12)))
(assert (= "j" (str.at var3 142)))
(assert (= "[" (str.at var46 349)))
(assert (= "-" (str.at var25 611)))
(assert (= "e" (str.at var0 950)))
(assert (= "C" (str.at var10 795)))
(assert (= "4" (str.at var23 236)))
(assert (= "I" (str.at var43 107)))
(assert (= "F" (str.at var43 176)))
(assert (= "7" (str.at var38 724)))
(assert (= "x" (str.at var16 465)))
(assert (= "O" (str.at var40 126)))
(assert (= "f" (str.at var42 457)))
(assert (= "1" (str.at var57 525)))
(assert (= ">" (str.at var34 233)))
(assert (= "Y" (str.at var10 166)))
(assert (= "{" (str.at var32 508)))
(assert (= "," (str.at var37 347)))
(assert (= "3" (str.at var17 287)))
(assert (= "M" (str.at var43 910)))
(assert (= "]" (str.at var53 285)))
(assert (= "]" (str.at var14 449)))
(assert (= "8" (str.at var1 371)))
(assert (= "~" (str.at var53 806)))
(assert (= "p" (str.at var56 891)))
(assert (= """" (str.at var23 921)))
(assert (= "(" (str.at var10 547)))
(assert (= "'" (str.at var42 730)))
(assert (= "A" (str.at var1 866)))
(assert (= "o" (str.at var59 636)))
(assert (= "y" (str.at var23 573)))
(assert (= "(" (str.at var38 340)))
(assert (= "N" (str.at var48 724)))
(assert (= "I" (str.at var32 136)))
(assert (= "=" (str.at var11 109)))
(assert (= "J" (str.at var49 881)))
(assert (= "B" (str.at var45 83)))
(assert (= "{" (str.at var25 242)))
(assert (= "{" (str.at var45 223)))
(assert (= "|" (str.at var3 386)))
(assert (= "E" (str.at var28 243)))
(assert (= ")" (str.at var50 232)))
(assert (= "k" (str.at var0 657)))
(assert (= "#" (str.at var51 837)))
(assert (= "M" (str.at var35 319)))
(assert (= "'" (str.at var53 406)))
(assert (= "M" (str.at var43 246)))
(assert (= "z" (str.at var41 237)))
(assert (= "." (str.at var33 703)))
(assert (= "b" (str.at var5 638)))
(assert (= "n" (str.at var18 584)))
(assert (= "$" (str.at var15 51)))
(assert (= "I" (str.at var24 395)))
(assert (= "s" (str.at var58 589)))
(assert (= "." (str.at var49 277)))
(assert (= "~" (str.at var57 94)))
(assert (= "U" (str.at var41 114)))
(assert (= "E" (str.at var15 294)))
(assert (= "`" (str.at var51 562)))
(assert (= "Q" (str.at var7 260)))
(assert (= "^" (str.at var4 364)))
(assert (= "G" (str.at var42 602)))
(assert (= "I" (str.at var23 838)))
(assert (= "u" (str.at var28 935)))
(assert (= "7" (str.at var22 480)))
(assert (= "s" (str.at var26 371)))
(assert (= "9" (str.at var37 268)))
(assert (= "O" (str.at var8 931)))
(assert (= "Y" (str.at var13 649)))
(assert (= "X" (str.at var6 70)))
(assert (= "2" (str.at var42 555)))
(assert (= "'" (str.at var9 159)))
(assert (= "|" (str.at var39 708)))
(assert (= "=" (str.at var11 821)))
(assert (= "." (str.at var0 637)))
(assert (= "$" (str.at var1 30)))
(assert (= "*" (str.at var32 432)))
(assert (= "_" (str.at var58 605)))
(assert (= "/" (str.at var52 568)))
(assert (= "~" (str.at var36 6)))
(assert (= "F" (str.at var23 409)))
(assert (= "F" (str.at var30 873)))
(assert (= "&" (str.at var23 422)))
(assert (= "g" (str.at var35 214)))
(assert (= "f" (str.at var51 713)))
(assert (= "S" (str.at var37 891)))
(assert (= "1" (str.at var23 854)))
(assert (= "u" (str.at var54 749)))
(assert (= "?" (str.at var38 696)))
(assert (= "{" (str.at var49 965)))
(assert (= "0" (str.at var21 230)))
(assert (= "Y" (str.at var19 423)))
(assert (= "]" (str.at var26 144)))
(assert (= "y" (str.at var43 83)))
(assert (= "g" (str.at var22 794)))
(assert (= "8" (str.at var59 172)))
(assert (= "7" (str.at var53 227)))
(assert (= "A" (str.at var48 957)))
(assert (= "p" (str.at var57 633)))
(assert (= """" (str.at var12 816)))
(assert (= "1" (str.at var8 527)))
(assert (= "g" (str.at var2 60)))
(assert (= "D" (str.at var46 266)))
(assert (= "j" (str.at var48 644)))
(assert (= "o" (str.at var23 203)))
(assert (= "f" (str.at var37 343)))
(assert (= "&" (str.at var52 88)))
(assert (= "v" (str.at var33 739)))
(assert (= "y" (str.at var37 860)))
(assert (= "B" (str.at var40 591)))
(assert (= "N" (str.at var22 774)))
(assert (= "Y" (str.at var60 35)))
(assert (= "1" (str.at var15 434)))
(assert (= "X" (str.at var16 257)))
(assert (= "<" (str.at var2 37)))
(assert (= "%" (str.at var6 693)))
(assert (= "(" (str.at var38 925)))
(assert (= "5" (str.at var53 859)))
(assert (= "K" (str.at var42 508)))
(assert (= "=" (str.at var18 308)))
(assert (= "c" (str.at var57 34)))
(assert (= "&" (str.at var55 264)))
(assert (= "0" (str.at var46 778)))
(assert (= "r" (str.at var50 791)))
(assert (= "/" (str.at var1 423)))
(assert (= "W" (str.at var40 510)))
(assert (= "h" (str.at var40 208)))
(assert (= "!" (str.at var23 450)))
(assert (= "U" (str.at var41 378)))
(assert (= "f" (str.at var38 68)))
(assert (= ";" (str.at var11 595)))
(assert (= "D" (str.at var19 996)))
(assert (= "5" (str.at var50 952)))
(assert (= "y" (str.at var12 136)))
(assert (= ";" (str.at var30 149)))
(assert (= "A" (str.at var58 773)))
(assert (= "E" (str.at var34 242)))
(assert (= "M" (str.at var12 765)))
(assert (= "-" (str.at var36 69)))
(assert (= "r" (str.at var1 696)))
(assert (= "d" (str.at var18 671)))
(assert (= "c" (str.at var41 717)))
(assert (= "6" (str.at var20 199)))
(assert (= "[" (str.at var2 355)))
(assert (= "j" (str.at var19 696)))
(assert (= "@" (str.at var25 938)))
(assert (= "V" (str.at var46 212)))
(assert (= "O" (str.at var25 579)))
(assert (= "u" (str.at var7 628)))
(assert (= "l" (str.at var33 732)))
(assert (= "D" (str.at var35 132)))
(assert (= "`" (str.at var34 285)))
(assert (= "j" (str.at var45 301)))
(assert (= "P" (str.at var24 641)))
(assert (= "Z" (str.at var47 595)))
(assert (= "\\" (str.at var55 892)))
(assert (= "%" (str.at var38 782)))
(assert (= "_" (str.at var57 693)))
(assert (= "," (str.at var36 837)))
(assert (= "D" (str.at var45 800)))
(assert (= "j" (str.at var4 468)))
(assert (= ">" (str.at var6 318)))
(assert (= "[" (str.at var46 2)))
(assert (= "C" (str.at var40 104)))
(assert (= "&" (str.at var43 81)))
(assert (= "m" (str.at var22 632)))
(assert (= "$" (str.at var59 260)))
(assert (= "9" (str.at var57 541)))
(assert (= "&" (str.at var0 874)))
(assert (= "g" (str.at var18 320)))
(assert (= "*" (str.at var35 926)))
(assert (= "V" (str.at var6 636)))
(assert (= "<" (str.at var1 322)))
(assert (= "]" (str.at var54 185)))
(assert (= "k" (str.at var24 260)))
(assert (= "m" (str.at var48 214)))
(assert (= "u" (str.at var14 821)))
(assert (= "U" (str.at var25 296)))
(assert (= "3" (str.at var4 114)))
(assert (= "j" (str.at var46 783)))
(assert (= "2" (str.at var40 719)))
(assert (= "8" (str.at var36 565)))
(assert (= "z" (str.at var4 994)))
(assert (= "L" (str.at var58 9)))
(assert (= "G" (str.at var60 670)))
(assert (= "P" (str.at var0 931)))
(assert (= "H" (str.at var9 787)))
(assert (= "G" (str.at var24 333)))
(assert (= "r" (str.at var16 9)))
(assert (= "Q" (str.at var25 732)))
(assert (= "v" (str.at var7 62)))
(assert (= "|" (str.at var42 873)))
(assert (= "@" (str.at var20 55)))
(assert (= "y" (str.at var6 656)))
(assert (= "6" (str.at var17 363)))
(assert (= "F" (str.at var23 651)))
(assert (= "L" (str.at var51 96)))
(assert (= "C" (str.at var18 810)))
(assert (= "I" (str.at var24 175)))
(assert (= "Z" (str.at var2 865)))
(assert (= "c" (str.at var38 788)))
(assert (= ">" (str.at var27 989)))
(assert (= "o" (str.at var11 678)))
(assert (= "i" (str.at var31 272)))
(assert (= "o" (str.at var11 179)))
(assert (= """" (str.at var57 589)))
(assert (= "h" (str.at var0 66)))
(assert (= "!" (str.at var45 883)))
(assert (= "K" (str.at var1 745)))
(assert (= "I" (str.at var4 252)))
(assert (= "3" (str.at var22 438)))
(assert (= "I" (str.at var47 335)))
(assert (= "&" (str.at var57 887)))
(assert (= "N" (str.at var12 598)))
(assert (= "/" (str.at var45 767)))
(assert (= "m" (str.at var24 340)))
(assert (= "v" (str.at var5 40)))
(assert (= "]" (str.at var16 353)))
(assert (= "4" (str.at var55 513)))
(assert (= ">" (str.at var21 548)))
(assert (= "H" (str.at var0 916)))
(assert (= "j" (str.at var58 85)))
(assert (= "X" (str.at var51 286)))
(assert (= "T" (str.at var13 670)))
(assert (= "8" (str.at var53 819)))
(assert (= "]" (str.at var25 795)))
(assert (= "w" (str.at var30 442)))
(assert (= "M" (str.at var25 49)))
(assert (= "?" (str.at var49 883)))
(assert (= "3" (str.at var35 721)))
(assert (= "A" (str.at var17 187)))
(assert (= "a" (str.at var16 325)))
(assert (= "G" (str.at var6 409)))
(assert (= "t" (str.at var59 489)))
(assert (= "P" (str.at var40 504)))
(assert (= "(" (str.at var7 508)))
(assert (= "f" (str.at var34 895)))
(assert (= "u" (str.at var55 878)))
(assert (= "'" (str.at var48 693)))
(assert (= "3" (str.at var40 42)))
(assert (= "%" (str.at var49 935)))
(assert (= "8" (str.at var18 675)))
(assert (= "y" (str.at var1 864)))
(assert (= "z" (str.at var23 605)))
(assert (= "$" (str.at var1 753)))
(assert (= "\\" (str.at var12 213)))
(assert (= "l" (str.at var60 25)))
(assert (= "e" (str.at var11 541)))
(assert (= "+" (str.at var39 95)))
(assert (= "1" (str.at var30 554)))
(assert (= "Q" (str.at var34 322)))
(assert (= "*" (str.at var39 455)))
(assert (= "'" (str.at var59 852)))
(assert (= "+" (str.at var53 13)))
(assert (= "7" (str.at var53 999)))
(assert (= "m" (str.at var16 384)))
(assert (= "a" (str.at var21 303)))
(assert (= "b" (str.at var35 438)))
(assert (= "7" (str.at var16 84)))
(assert (= "j" (str.at var42 820)))
(assert (= "," (str.at var51 754)))
(assert (= "q" (str.at var24 25)))
(assert (= "B" (str.at var32 797)))
(assert (= "S" (str.at var5 506)))
(assert (= "+" (str.at var27 42)))
(assert (= "h" (str.at var11 422)))
(assert (= "q" (str.at var2 813)))
(assert (= "," (str.at var0 253)))
(assert (= "4" (str.at var9 809)))
(assert (= "I" (str.at var56 714)))
(assert (= "I" (str.at var1 421)))
(assert (= "N" (str.at var20 776)))
(assert (= "h" (str.at var38 275)))
(assert (= "d" (str.at var48 410)))
(assert (= "u" (str.at var48 794)))
(assert (= "k" (str.at var13 793)))
(assert (= "Z" (str.at var52 842)))
(assert (= "X" (str.at var34 562)))
(assert (= "o" (str.at var46 981)))
(assert (= "O" (str.at var0 185)))
(assert (= "_" (str.at var21 85)))
(assert (= "{" (str.at var43 494)))
(assert (= "u" (str.at var32 799)))
(assert (= "T" (str.at var7 978)))
(assert (= "R" (str.at var27 984)))
(assert (= "*" (str.at var53 820)))
(assert (= ":" (str.at var19 331)))
(assert (= "." (str.at var34 815)))
(assert (= "_" (str.at var25 194)))
(assert (= "R" (str.at var55 520)))
(assert (= "r" (str.at var39 355)))
(assert (= "J" (str.at var44 75)))
(assert (= "O" (str.at var45 370)))
(assert (= "7" (str.at var23 796)))
(assert (= "B" (str.at var5 651)))
(assert (= "." (str.at var0 944)))
(assert (= "z" (str.at var60 331)))
(assert (= ">" (str.at var60 26)))
(assert (= "\\" (str.at var31 566)))
(assert (= "3" (str.at var13 628)))
(assert (= "&" (str.at var30 783)))
(assert (= "8" (str.at var2 447)))
(assert (= "[" (str.at var31 269)))
(assert (= "C" (str.at var9 111)))
(assert (= "l" (str.at var52 918)))
(assert (= "*" (str.at var33 223)))
(assert (= "0" (str.at var12 960)))
(assert (= "b" (str.at var22 573)))
(assert (= "Q" (str.at var36 321)))
(assert (= "W" (str.at var0 977)))
(assert (= "\\" (str.at var47 695)))
(assert (= "4" (str.at var28 953)))
(assert (= "S" (str.at var6 479)))
(assert (= "w" (str.at var35 571)))
(assert (= "W" (str.at var27 190)))
(assert (= "I" (str.at var39 422)))
(assert (= "E" (str.at var60 67)))
(assert (= ":" (str.at var17 979)))
(assert (= "o" (str.at var43 770)))
(assert (= "~" (str.at var38 565)))
(assert (= "W" (str.at var22 485)))
(assert (= "_" (str.at var35 439)))
(assert (= "R" (str.at var37 847)))
(assert (= "y" (str.at var53 701)))
(assert (= "*" (str.at var48 212)))
(assert (= "4" (str.at var41 938)))
(assert (= "y" (str.at var28 2)))
(assert (= "7" (str.at var60 687)))
(assert (= "y" (str.at var40 778)))
(assert (= "U" (str.at var2 667)))
(assert (= "J" (str.at var16 24)))
(assert (= "T" (str.at var44 206)))
(assert (= "x" (str.at var21 828)))
(assert (= "N" (str.at var60 463)))
(assert (= "G" (str.at var17 821)))
(assert (= "%" (str.at var32 953)))
(assert (= "m" (str.at var46 831)))
(assert (= "Z" (str.at var21 406)))
(assert (= "{" (str.at var54 981)))
(assert (= "$" (str.at var0 728)))
(assert (= "`" (str.at var12 438)))
(assert (= "6" (str.at var34 602)))
(assert (= "@" (str.at var19 790)))
(assert (= "g" (str.at var10 741)))
(assert (= "j" (str.at var15 491)))
(assert (= "D" (str.at var35 353)))
(assert (= "b" (str.at var19 303)))
(assert (= "s" (str.at var33 986)))
(assert (= "x" (str.at var11 385)))
(assert (= "P" (str.at var35 173)))
(assert (= "K" (str.at var6 400)))
(assert (= "P" (str.at var29 300)))
(assert (= "+" (str.at var52 379)))
(assert (= "/" (str.at var4 454)))
(assert (= "E" (str.at var47 938)))
(assert (= "O" (str.at var46 832)))
(assert (= "N" (str.at var20 519)))
(assert (= "o" (str.at var25 487)))
(assert (= "}" (str.at var59 254)))
(assert (= "$" (str.at var21 58)))
(assert (= "'" (str.at var33 819)))
(assert (= "!" (str.at var44 982)))
(assert (= ">" (str.at var19 334)))
(assert (= "x" (str.at var16 857)))
(assert (= ")" (str.at var9 642)))
(assert (= "!" (str.at var4 647)))
(assert (= "j" (str.at var21 634)))
(assert (= "9" (str.at var40 486)))
(assert (= "p" (str.at var16 352)))
(assert (= "/" (str.at var4 957)))
(assert (= "U" (str.at var54 506)))
(assert (= "S" (str.at var39 277)))
(assert (= "m" (str.at var24 68)))
(assert (= "(" (str.at var38 820)))
(assert (= "n" (str.at var57 898)))
(assert (= "Q" (str.at var46 264)))
(assert (= "%" (str.at var46 805)))
(assert (= "E" (str.at var13 292)))
(assert (= "&" (str.at var12 516)))
(assert (= "F" (str.at var28 882)))
(assert (= "\\" (str.at var51 854)))
(assert (= "F" (str.at var14 706)))
(assert (= "e" (str.at var16 37)))
(assert (= "j" (str.at var57 113)))
(assert (= "." (str.at var22 731)))
(assert (= ";" (str.at var17 573)))
(assert (= "=" (str.at var8 429)))
(assert (= "U" (str.at var47 563)))
(assert (= "S" (str.at var1 240)))
(assert (= "'" (str.at var49 942)))
(assert (= "+" (str.at var51 15)))
(assert (= "K" (str.at var42 216)))
(assert (= "=" (str.at var48 39)))
(assert (= "H" (str.at var27 207)))
(assert (= "h" (str.at var12 569)))
(assert (= "M" (str.at var53 977)))
(assert (= "\\" (str.at var57 729)))
(assert (= "2" (str.at var14 290)))
(assert (= "." (str.at var40 547)))
(assert (= "+" (str.at var53 751)))
(assert (= "<" (str.at var27 11)))
(assert (= "P" (str.at var51 36)))
(assert (= "N" (str.at var8 246)))
(assert (= "a" (str.at var31 749)))
(assert (= "c" (str.at var57 236)))
(assert (= "A" (str.at var59 72)))
(assert (= "^" (str.at var4 168)))
(assert (= "p" (str.at var54 943)))
(assert (= "-" (str.at var8 484)))
(assert (= "?" (str.at var36 525)))
(assert (= "H" (str.at var59 318)))
(assert (= "2" (str.at var6 234)))
(assert (= "U" (str.at var38 980)))
(assert (= "e" (str.at var13 35)))
(assert (= "w" (str.at var42 1000)))
(assert (= "'" (str.at var21 831)))
(assert (= "x" (str.at var43 502)))
(assert (= "W" (str.at var5 595)))
(assert (= "W" (str.at var13 985)))
(assert (= "X" (str.at var20 537)))
(assert (= "(" (str.at var29 340)))
(assert (= "#" (str.at var34 110)))
(assert (= "=" (str.at var55 528)))
(assert (= "j" (str.at var13 507)))
(assert (= "L" (str.at var32 134)))
(assert (= "0" (str.at var45 139)))
(assert (= "T" (str.at var55 588)))
(assert (= "]" (str.at var12 53)))
(assert (= "R" (str.at var53 54)))
(assert (= "d" (str.at var20 721)))
(assert (= "v" (str.at var50 877)))
(assert (= "s" (str.at var8 214)))
(assert (= ":" (str.at var9 190)))
(assert (= "X" (str.at var34 383)))
(assert (= "#" (str.at var32 110)))
(assert (= "w" (str.at var22 406)))
(assert (= "p" (str.at var8 348)))
(assert (= "Y" (str.at var1 58)))
(assert (= "W" (str.at var1 127)))
(assert (= "`" (str.at var30 798)))
(assert (= "l" (str.at var43 119)))
(assert (= "}" (str.at var53 191)))
(assert (= "Z" (str.at var32 554)))
(assert (= "j" (str.at var45 177)))
(assert (= "V" (str.at var31 981)))
(assert (= "&" (str.at var15 7)))
(assert (= "h" (str.at var5 576)))
(assert (= "u" (str.at var43 34)))
(assert (= "E" (str.at var59 56)))
(assert (= "/" (str.at var1 461)))
(assert (= "0" (str.at var55 47)))
(assert (= "C" (str.at var46 572)))
(assert (= "m" (str.at var49 240)))
(assert (= "e" (str.at var20 24)))
(assert (= "'" (str.at var2 580)))
(assert (= "4" (str.at var39 217)))
(assert (= "B" (str.at var28 596)))
(assert (= "h" (str.at var45 959)))
(assert (= "0" (str.at var3 416)))
(assert (= "7" (str.at var57 459)))
(assert (= "1" (str.at var36 266)))
(assert (= "{" (str.at var24 691)))
(assert (= "w" (str.at var26 827)))
(assert (= "G" (str.at var16 808)))
(assert (= "/" (str.at var10 736)))
(assert (= "B" (str.at var22 234)))
(assert (= "b" (str.at var7 875)))
(assert (= "9" (str.at var58 563)))
(assert (= "J" (str.at var60 678)))
(assert (= "l" (str.at var35 572)))
(assert (= "A" (str.at var21 51)))
(assert (= "b" (str.at var20 436)))
(assert (= "7" (str.at var38 331)))
(assert (= "Y" (str.at var13 585)))
(assert (= "!" (str.at var42 114)))
(assert (= "h" (str.at var19 698)))
(assert (= "," (str.at var31 896)))
(assert (= ";" (str.at var9 875)))
(assert (= "$" (str.at var38 978)))
(assert (= "(" (str.at var33 996)))
(assert (= "$" (str.at var21 242)))
(assert (= "5" (str.at var42 335)))
(assert (= "'" (str.at var5 586)))
(assert (= "H" (str.at var53 394)))
(assert (= "_" (str.at var28 785)))
(assert (= "q" (str.at var49 215)))
(assert (= "n" (str.at var51 487)))
(assert (= "l" (str.at var23 822)))
(assert (= "E" (str.at var56 564)))
(assert (= "o" (str.at var44 171)))
(assert (= "K" (str.at var25 452)))
(assert (= "y" (str.at var14 863)))
(assert (= "%" (str.at var19 124)))
(check-sat)